
  12    4
  10   10   10   10

   0   0   0   0   0   1 2 
   4  10  10  10  10   1 3 
   6  10  10  10  10   1 4 
   3  10  10  10  10   3 8 6 5 
   3  10  10  10  10   3 11 10 9 
   5  10  10  10  10   1 7 
   4  10  10  10  10   1 9 
   7  10  10  10  10   1 9 
   3  10  10  10  10   1 12
   9  10  10  10  10   1 12
  10  10  10  10  10   1 12
   0   0   0   0   0   0 
